p tw 55 59
1 2
2 13
3 4
4 5
4 7
5 6
6 45
7 8
8 9
9 10
10 11
11 12
12 14
13 24
14 15
14 17
15 16
16 45
17 18
18 19
19 20
20 21
21 22
22 23
23 25
24 35
25 26
26 27
26 31
27 28
28 29
29 30
30 45
31 32
32 33
33 34
34 36
35 46
36 37
37 38
38 39
38 48
39 40
40 41
41 42
42 43
43 44
44 45
45 47
46 52
47 50
48 49
49 50
50 51
52 53
53 54
53 45
54 55
55 3
